231997.75,19.99,21.89
236271.18,19.63,21.5
234875.46,19.74,21.63
233727.56,19.84,21.73
236857.94,19.58,21.45
234246.84,19.8,21.68
233627.64,19.85,21.74
228555.18,20.29,22.22
230534.0,20.12,22.03
248439.27,18.67,20.45
246075.23,18.85,20.64
247741.77,18.72,20.5
224614.68,20.65,22.61
225786.05,20.54,22.5
257944.61,17.98,19.69
233603.68,19.85,21.74
239944.85,19.33,21.17
235244.09,19.71,21.59
235337.22,19.71,21.58
237674.2,19.51,21.37
